8
1 0 0 427
2 0 165 272
3 0 80 148
4 0 0 36
5 0 82 191
6 0 220 303
7 0 184 265
8 0 102 155
1 2 31
1 3 22
1 4 12
1 5 25
1 6 4
1 7 15
1 8 18
2 1 31
2 3 47
2 4 32
2 5 44
2 6 34
2 7 18
2 8 49
3 1 22
3 2 47
3 4 34
3 5 8
3 6 22
3 7 29
3 8 17
4 1 12
4 2 32
4 3 34
4 5 37
4 6 12
4 7 21
4 8 24
5 1 25
5 2 44
5 3 8
5 4 37
5 6 25
5 7 27
5 8 24
6 1 4
6 2 34
6 3 22
6 4 12
6 5 25
6 7 19
6 8 15
7 1 15
7 2 18
7 3 29
7 4 21
7 5 27
7 6 19
7 8 32
8 1 18
8 2 49
8 3 17
8 4 24
8 5 24
8 6 15
8 7 32
